DIMENSION: 14
EDGE_WEIGHT_TYPE: EXPLICIT
EDGE_WEIGHT_FORMAT: FULL_MATRIX
EDGE_WEIGHT_SECTION:
32767 32767 32767 32767 94 32767 32767 16 79 32767 35 32767 32767 45 
32767 32767 32767 13 95 32767 32767 32767 32767 29 19 85 32767 30 
32767 32767 32767 52 32767 32767 32767 56 32767 47 32767 32767 32767 32767 
32767 13 52 32767 32767 43 32767 32767 32767 37 32767 32767 2 32767 
94 95 32767 32767 32767 32767 98 32767 1 32767 9 32767 49 60 
32767 32767 32767 43 32767 32767 32767 32767 97 56 32767 32767 99 32767 
32767 32767 32767 32767 98 32767 32767 30 32767 32767 66 20 32767 32767 
16 32767 56 32767 32767 32767 30 32767 32767 22 32767 32767 58 57 
79 32767 32767 32767 1 97 32767 32767 32767 32767 32767 32767 32767 3 
32767 29 47 37 32767 56 32767 22 32767 32767 1 9 7 32767 
35 19 32767 32767 9 32767 66 32767 32767 1 32767 32767 32767 16 
32767 85 32767 32767 32767 32767 20 32767 32767 9 32767 32767 32767 35 
32767 32767 32767 2 49 99 32767 58 32767 7 32767 32767 32767 32767 
45 30 32767 32767 60 32767 32767 57 3 32767 16 35 32767 32767 
EOF